p tw 50 177
0 1
0 2
0 7
0 11
0 23
0 5
0 36
1 2
1 6
1 7
1 18
1 19
1 37
1 10
1 30
2 8
2 9
2 7
2 20
2 21
3 4
3 5
3 36
3 37
3 29
3 42
3 47
4 5
4 21
4 32
4 22
4 38
4 36
4 43
4 48
5 32
5 36
5 19
5 31
5 18
6 7
6 35
6 37
6 41
6 45
6 49
7 34
7 35
7 21
8 9
8 40
8 41
8 20
8 44
8 49
8 46
8 14
9 25
9 26
9 23
9 33
9 42
9 18
9 38
10 11
10 12
10 13
10 16
10 30
11 12
11 16
11 15
11 23
12 16
12 17
12 27
12 40
12 15
12 31
13 14
13 15
13 33
13 39
13 16
13 49
14 15
14 31
14 46
14 49
15 25
15 39
15 33
15 17
15 43
16 17
16 30
16 48
17 30
17 31
17 43
18 19
18 38
18 27
18 32
18 36
19 27
19 28
19 31
20 21
20 29
20 44
20 26
20 28
20 46
21 29
21 32
21 46
22 23
22 24
22 32
22 38
22 37
22 33
23 24
23 33
24 32
24 38
24 37
25 26
25 39
25 29
25 33
26 39
26 42
26 45
26 28
27 28
27 40
27 43
28 38
28 43
28 48
29 39
29 42
30 31
30 44
30 46
30 48
30 47
31 44
31 47
31 46
32 36
32 38
32 48
33 39
34 35
34 42
34 45
34 40
34 41
35 37
35 47
35 49
36 37
37 47
38 43
38 48
39 42
40 41
40 45
41 45
41 49
42 45
43 48
44 46
44 47
